41 372
2 4 5 7 8 9 11 16 17 18 19 20 23 25 26 27 31 33 34 36
2 6 9 11 12 14 17 19 22 25 26 27 28 31 37 39 40
0 1 4 5 6 10 13 14 16 17 21 23 24 26 27 28 30 32 34 35 36 40
4 5 9 12 15 17 18 26 27 29 30 35 39
0 2 3 5 7 8 9 13 19 22 25 29 32 34 35 36 39 40
0 2 3 4 8 9 10 12 13 15 16 17 19 22 26 27 29 30 32 33 34 35 40
1 2 8 10 13 17 18 19 20 21 22 23 24 29 30 33 34 38 39 40
0 4 10 11 12 13 14 16 17 19 20 22 23 25 27 31 32 40
0 4 5 6 9 10 11 12 16 18 19 20 27 29 30 31 33 35 38 40
0 1 3 4 5 8 12 13 14 15 16 18 20 22 25 27 28 30 31 33 37 40
2 5 6 7 8 12 13 14 18 19 20 22 25 26 30 31 32 33 34 36 37 38 39
0 1 7 8 12 14 18 19 28 29 30 35 37 38 39 40
1 3 5 7 8 9 10 11 14 15 17 20 23 25 26 30 34 35 37
2 4 5 6 7 9 10 15 16 17 20 21 22 23 26 27 29 30 33 34 38 40
1 2 7 9 10 11 12 17 19 24 25 26 27 29 32 33 34 35 37 38 40
3 5 9 12 13 16 19 20 22 23 24 26 28 29 33 34 35 38 39
0 2 5 7 8 9 13 15 17 21 23 25 27 28 30 33 37 38 39
0 1 2 3 5 6 7 12 13 14 16 22 29 33 34
0 3 6 8 9 10 11 20 21 23 24 30 31 32 33 34 35 37 38 40
0 1 4 5 6 7 8 10 11 14 15 20 23 24 27 29 30 33 35 39
0 6 7 8 9 10 12 13 15 18 19 21 24 29 31 33 34 36
2 6 13 16 18 20 22 25 26 28 29 32 33 37 38 39
1 4 5 6 7 9 10 13 15 17 21 26 30 31 32 33 37 39
0 2 6 7 12 13 15 16 18 19 24 25 30 33 34 37
2 6 14 15 18 19 20 23 25 26 34 39
0 1 4 7 9 10 12 14 16 21 23 24 35 36 39
0 1 2 3 5 10 12 13 14 15 21 22 24 27 31 32 36 38 39 40
0 1 2 3 5 7 8 9 13 14 16 19 26 29 34 39 40
1 2 9 11 15 16 21 29 30 32 34 36 37
3 4 5 6 8 11 13 14 15 17 19 20 21 27 28 30 39
2 3 5 6 8 9 10 11 12 13 16 18 19 22 23 28 29 36 37
0 1 7 8 9 10 18 20 22 26 33 34 35 36 38 40
2 4 5 7 10 14 18 21 22 26 28 34 35 38 39 40
0 5 6 8 9 10 13 14 15 16 17 18 19 20 21 22 23 31 35 36 38 39
0 2 4 5 6 10 12 13 14 15 17 18 20 23 24 27 28 31 32 35 36
2 3 4 5 8 11 12 14 15 18 19 25 31 32 33 34 36 38
0 2 4 10 20 25 26 28 30 31 33 34 35 38 39
1 9 10 11 12 14 16 18 21 22 23 28 30 39
6 8 10 11 13 14 15 16 18 21 26 31 32 33 35 36
1 3 4 6 10 11 15 16 19 21 22 24 25 26 27 29 32 33 36 37 40
1 2 4 5 6 7 8 9 11 13 14 18 26 27 31 32 39
